solution status: optimal solution found
objective value:                                   12
$_80_y                                              6 	(obj:0)
$_80_z                                              2 	(obj:0)
$_23__2_y                                           3 	(obj:0)
$_23__2_z                                          10 	(obj:0)
$_19__2_y                                           6 	(obj:0)
$_19__2_z                                          13 	(obj:0)
$_25__2_y                                           8 	(obj:0)
$_25__2_z                                           4 	(obj:0)
$_125_y                                             7 	(obj:0)
$_125_z                                             8 	(obj:0)
$_203_y                                             7 	(obj:0)
$_203_z                                             9 	(obj:0)
$_128_y                                             8 	(obj:0)
$_128_z                                             8 	(obj:0)
$_43_y                                              4 	(obj:0)
$_43_z                                              9 	(obj:0)
$_74_y                                              6 	(obj:0)
$_74_z                                              3 	(obj:0)
$_244_y                                             7 	(obj:0)
$_244_z                                             5 	(obj:0)
$_114_y                                             2 	(obj:0)
$_114_z                                             9 	(obj:0)
$_195_y                                             7 	(obj:0)
$_195_z                                             7 	(obj:0)
$_162_y                                             3 	(obj:0)
$_162_z                                             9 	(obj:0)
$_65_y                                              7 	(obj:0)
$_65_z                                              2 	(obj:0)
$_132_y                                             7 	(obj:0)
$_132_z                                             1 	(obj:0)
$_24__2_y                                           8 	(obj:0)
$_24__2_z                                           9 	(obj:0)
$_22__2_y                                           2 	(obj:0)
$_22__2_z                                          10 	(obj:0)
$_135_y                                             7 	(obj:0)
$_135_z                                             3 	(obj:0)
$_75_y                                              1 	(obj:0)
$_75_z                                              9 	(obj:0)
$_81_z                                              7 	(obj:0)
$_18__2_y                                           3 	(obj:0)
$_18__2_z                                          14 	(obj:0)
$_118_y                                             5 	(obj:0)
$_118_z                                             9 	(obj:0)
$_20__2_y                                          10 	(obj:0)
$_20__2_z                                           9 	(obj:0)
$_154_y                                             3 	(obj:0)
$_154_z                                             8 	(obj:0)
$_111_z                                             9 	(obj:0)
$_121_y                                             3 	(obj:0)
$_121_z                                             7 	(obj:0)
$_236_y                                             8 	(obj:0)
$_236_z                                             5 	(obj:0)
$_21__2_y                                           9 	(obj:0)
$_21__2_z                                           3 	(obj:0)
x67                                                 2 	(obj:1)
x78                                                 2 	(obj:1)
x80                                                 2 	(obj:1)
x83                                                 2 	(obj:1)
x85                                                 1 	(obj:1)
x87                                                 1 	(obj:1)
x120                                                2 	(obj:1)
